18
137
873
981
782
1505
1180
2916
3234
366
1878
3087
2970
989
2696
5545
2209
7154
9438
2065
9350
10578
8454
1512
6129
3382
15981
10665
11197
18413
5485
1879
2862
2250
17596
17506
8055
10548
30123
5628
1071
32272
31864
35439
34975
22273
30019
38178
33727
40586
40088
21869
34621
33559
24465
17832
17140
61525
46365
22982
63805
60595
67697
70255
77562
65595
34492
61247
82749
46183
80122
47768
21061
77412
69540
70136
27529
57619
97691
104755
82805
77226
102374
39514
95617
122994
139403
57058
150543
127776
150092
128049
10819
156409
129268
54250
44084
159445
4815
109022
